# Solution for model count
# Objective value = 9
z#1 1
z#2 0
z#3 0
z#4 0
z#5 1
z#6 1
z#7 1
z#8 0
z#9 0
z#10 0
z#11 1
z#12 0
z#13 0
z#14 1
z#15 1
z#16 0
z#17 1
z#18 0
z#19 0
z#20 0
z#21 0
z#22 0
z#23 1
z#24 0
x#24 0
x#23 2283
x#22 0
x#21 0
x#20 0
x#19 0
x#18 0
x#17 794
x#16 0
x#15 758
x#14 2022
x#13 0
x#12 0
x#11 499
x#10 0
x#9 0
x#8 0
x#7 1151
x#6 1342
x#5 700
x#4 0
x#3 0
x#2 0
x#1 451
